p cnf 22 30
-4 15 0 
-12 1 0 
-3 20 0 
-6 10 0 
-6 16 0 
-8 9 0 
-14 3 0 
-2 17 0 
-5 13 0 
-5 19 0 
-4 22 0 
-3 14 0 
-8 11 0 
-9 8 0 
-11 8 0 
-13 5 0 
-21 1 0 
-17 2 0 
-10 6 0 
-7 18 0 
-19 5 0 
-5 18 0 
-22 4 0 
-16 6 0 
-15 4 7 0 
-20 3 0 
-18 5 7 0 
-1 12 0 
-7 15 0 
-1 21 0 
